
  32    4
  10   10   10   10

   0   0   0   0   0   4 2 29 30 31 
   9   1   1   0   1   2 28 3 
   2   0   3   1   5   2 27 4 
   1   3   6   1   0   1 5 
   5   6   3   3   0   1 6 
   1   5   2   4   0   1 7 
   1   3   0  10   8   1 8 
   7   3   2   6   0   1 9 
   9   2   7   5   0   2 26 10 
   9   0   6   4   3   1 11 
   2   0   3   2   4   1 12 
  10   3   3   0   6   1 13 
   1   0   4   2   4   1 14 
   5   0   4   2   3   1 15 
   9   5   3   5   0   1 16 
  10   7   5   3   0   1 17 
   9   2   0   5   4   1 18 
   5   4   6   0   2   1 19 
   2   3   0   6   5   1 20 
  10   0   7   5   4   1 21 
   5   4   0   4   2   1 22 
   2   5   4   3   0   1 23 
   1   1   0   4   3   1 24 
   7   5   7   5   0   1 25 
  10   0   4   5   4   1 32
   3   8   3   0   5   1 32
   1   6   4   0   4   1 32
   5   5   2   0   5   1 32
   4   0   3   3   3   1 32
   7   3   5   0   5   1 32
  10   4   3   4   0   1 32
   0   0   0   0   0   0 
